; benchmark generated from python API
(set-info :status unknown)
(declare-fun DISJ_W_S1_R_S1 () Bool)
(declare-fun DISJ_W_S2_R_S1 () Bool)
(declare-fun W_S2_V2 () Bool)
(declare-fun R_E1_V4 () Bool)
(declare-fun W_S1_V4 () Bool)
(declare-fun R_E1_V5 () Bool)
(declare-fun W_S1_V5 () Bool)
(declare-fun W_S2_V5 () Bool)
(declare-fun W_S2_V3 () Bool)
(declare-fun W_S2_V1 () Bool)
(declare-fun R_S2_V4 () Bool)
(declare-fun R_S2_V5 () Bool)
(declare-fun R_S2_V2 () Bool)
(declare-fun R_S2_V3 () Bool)
(declare-fun R_S2_V1 () Bool)
(declare-fun R_S1_V1 () Bool)
(declare-fun R_S1_V4 () Bool)
(declare-fun R_S1_V5 () Bool)
(declare-fun R_S1_V2 () Bool)
(declare-fun R_S1_V3 () Bool)
(declare-fun R_E1_V2 () Bool)
(declare-fun DISJ_W_S2_R_E1 () Bool)
(declare-fun DISJ_W_S2_R_S2 () Bool)
(declare-fun DISJ_W_S1_W_S2 () Bool)
(declare-fun R_E1_V3 () Bool)
(declare-fun DISJ_W_S1_R_S2 () Bool)
(declare-fun W_S2_V4 () Bool)
(declare-fun W_S1_V3 () Bool)
(declare-fun W_S1_V2 () Bool)
(declare-fun W_S1_V1 () Bool)
(declare-fun R_E1_V1 () Bool)
(declare-fun DISJ_W_S1_R_E1 () Bool)
(assert
 (let (($x3972 (not (and (not W_S2_V2) DISJ_W_S2_R_S1 DISJ_W_S1_R_S1))))
 (let (($x2653 (not (and W_S1_V4 R_E1_V4))))
 (let (($x4738 (not (and W_S1_V5 R_E1_V5))))
 (let (($x591 (forall ((V3_0 Int) )(forall ((V2_0 Int) )(forall ((V5_0 Int) )(forall ((V4_0 Int) )(forall ((MW_S1_V1 Bool) )(forall ((MW_S1_V3 Bool) )(forall ((MW_S1_V2 Bool) )(forall ((MW_S1_V5 Bool) )(forall ((MW_S1_V4 Bool) )(forall ((MW_S2_V1 Bool) )(forall ((MW_S2_V3 Bool) )(forall ((MW_S2_V2 Bool) )(forall ((MW_S2_V5 Bool) )(forall ((MW_S2_V4 Bool) )(forall ((S1_V1_!1516 Int) )(forall ((S1_V1_!1521 Int) )(forall ((S1_V1_!1533 Int) )(forall ((S2_V5_!1530 Int) )(forall ((S2_V5_!1541 Int) )(forall ((S1_V3_!1517 Int) )(forall ((S1_V3_!1522 Int) )(forall ((S1_V3_!1534 Int) )(forall ((S1_V2_!1518 Int) )(forall ((S1_V2_!1523 Int) )(forall ((S1_V2_!1535 Int) )(forall ((E1_!1515 Int) )(forall ((E1_!1526 Int) )(forall ((E1_!1532 Int) )(forall ((S2_V4_!1531 Int) )(forall ((S2_V4_!1542 Int) )(forall ((S1_V5_!1519 Int) )(forall ((S1_V5_!1524 Int) )(forall ((S1_V5_!1536 Int) )(forall ((S2_V1_!1527 Int) )(forall ((S2_V1_!1538 Int) )(forall ((S1_V4_!1520 Int) )(forall ((S1_V4_!1525 Int) )(forall ((S1_V4_!1537 Int) )(forall ((S2_V2_!1529 Int) )(forall ((S2_V2_!1540 Int) )(forall ((S2_V3_!1528 Int) )(forall ((S2_V3_!1539 Int) )(let (($x1159 (= (ite MW_S2_V4 S2_V4_!1531 (ite MW_S1_V4 S1_V4_!1525 V4_0)) (ite MW_S2_V4 S2_V4_!1542 (ite MW_S1_V4 S1_V4_!1537 V4_0)))))
 (let (($x315 (= (ite MW_S2_V5 S2_V5_!1530 (ite MW_S1_V5 S1_V5_!1524 V5_0)) (ite MW_S2_V5 S2_V5_!1541 (ite MW_S1_V5 S1_V5_!1536 V5_0)))))
 (let ((?x3180 (ite MW_S1_V2 S1_V2_!1535 V2_0)))
 (let ((?x989 (ite MW_S2_V2 S2_V2_!1540 ?x3180)))
 (let ((?x492 (ite MW_S1_V2 S1_V2_!1523 V2_0)))
 (let ((?x4863 (ite MW_S2_V2 S2_V2_!1529 ?x492)))
 (let (($x5285 (= (ite MW_S2_V3 S2_V3_!1528 (ite MW_S1_V3 S1_V3_!1522 V3_0)) (ite MW_S2_V3 S2_V3_!1539 (ite MW_S1_V3 S1_V3_!1534 V3_0)))))
 (let (($x1670 (and (= (ite MW_S2_V1 S2_V1_!1527 E1_!1526) (ite MW_S2_V1 S2_V1_!1538 (ite MW_S1_V1 S1_V1_!1533 E1_!1532))) $x5285 (= ?x4863 ?x989) $x315 $x1159)))
 (let (($x1215 (>= (ite MW_S1_V1 S1_V1_!1521 (+ 1 (ite MW_S1_V1 S1_V1_!1516 E1_!1515))) (+ (- 1) ?x492))))
 (let (($x4251 (and (not (<= V2_0 E1_!1515)) (not (<= (ite MW_S1_V2 S1_V2_!1518 V2_0) (+ 1 (ite MW_S1_V1 S1_V1_!1516 E1_!1515)))) $x1215 (not (<= ?x492 E1_!1526)) (>= (ite MW_S2_V1 S2_V1_!1527 E1_!1526) (+ (- 1) ?x4863)) (not (<= V2_0 E1_!1532)) (>= (ite MW_S2_V1 S2_V1_!1538 (ite MW_S1_V1 S1_V1_!1533 E1_!1532)) (+ (- 1) ?x989)))))
 (let (($x530 (= S2_V3_!1528 S2_V3_!1539)))
 (let (($x5851 (and (or (not R_S2_V1) (= E1_!1526 (ite MW_S1_V1 S1_V1_!1533 E1_!1532))) (or (not R_S2_V3) (= (ite MW_S1_V3 S1_V3_!1522 V3_0) (ite MW_S1_V3 S1_V3_!1534 V3_0))) (or (not R_S2_V2) (= ?x492 ?x3180)) (or (not R_S2_V5) (= (ite MW_S1_V5 S1_V5_!1524 V5_0) (ite MW_S1_V5 S1_V5_!1536 V5_0))) (or (not R_S2_V4) (= (ite MW_S1_V4 S1_V4_!1525 V4_0) (ite MW_S1_V4 S1_V4_!1537 V4_0))))))
 (let (($x1040 (not $x5851)))
 (let (($x3109 (not R_S1_V4)))
 (let (($x3924 (or $x3109 (= (ite MW_S1_V4 S1_V4_!1520 V4_0) V4_0))))
 (let (($x1626 (not R_S1_V5)))
 (let (($x2611 (or $x1626 (= (ite MW_S1_V5 S1_V5_!1519 V5_0) V5_0))))
 (let (($x4263 (not R_S1_V2)))
 (let (($x2675 (or $x4263 (= (ite MW_S1_V2 S1_V2_!1518 V2_0) V2_0))))
 (let (($x3742 (not R_S1_V3)))
 (let (($x3374 (or $x3742 (= (ite MW_S1_V3 S1_V3_!1517 V3_0) V3_0))))
 (let (($x5549 (and (or (not R_S1_V1) (= (ite MW_S1_V1 S1_V1_!1516 E1_!1515) (+ (- 1) E1_!1532))) $x3374 $x2675 $x2611 $x3924)))
 (let (($x1714 (and (or (not R_S1_V1) (= (ite MW_S1_V1 S1_V1_!1516 E1_!1515) (+ (- 1) E1_!1515))) $x3374 $x2675 $x2611 $x3924)))
 (let (($x1442 (or $x3109 (= V4_0 (ite MW_S1_V4 S1_V4_!1520 V4_0)))))
 (let (($x4386 (or $x1626 (= V5_0 (ite MW_S1_V5 S1_V5_!1519 V5_0)))))
 (let (($x5838 (or $x4263 (= V2_0 (ite MW_S1_V2 S1_V2_!1518 V2_0)))))
 (let (($x1709 (or $x3742 (= V3_0 (ite MW_S1_V3 S1_V3_!1517 V3_0)))))
 (let (($x2288 (and (or (not R_S1_V1) (= E1_!1532 (+ 1 (ite MW_S1_V1 S1_V1_!1516 E1_!1515)))) $x1709 $x5838 $x4386 $x1442)))
 (let (($x616 (not $x2288)))
 (let (($x389 (and (or (not R_S1_V1) (= E1_!1515 (+ 1 (ite MW_S1_V1 S1_V1_!1516 E1_!1515)))) $x1709 $x5838 $x4386 $x1442)))
 (let (($x1682 (not $x389)))
 (let (($x3052 (= S2_V4_!1542 S2_V4_!1531)))
 (let (($x2746 (and (or (not R_S2_V1) (= (ite MW_S1_V1 S1_V1_!1533 E1_!1532) E1_!1526)) (or (not R_S2_V3) (= (ite MW_S1_V3 S1_V3_!1534 V3_0) (ite MW_S1_V3 S1_V3_!1522 V3_0))) (or (not R_S2_V2) (= ?x3180 ?x492)) (or (not R_S2_V5) (= (ite MW_S1_V5 S1_V5_!1536 V5_0) (ite MW_S1_V5 S1_V5_!1524 V5_0))) (or (not R_S2_V4) (= (ite MW_S1_V4 S1_V4_!1537 V4_0) (ite MW_S1_V4 S1_V4_!1525 V4_0))))))
 (let (($x3575 (= E1_!1532 E1_!1515)))
 (let (($x4348 (= E1_!1526 E1_!1532)))
 (let (($x2515 (and (or (not R_E1_V2) (= ?x492 V2_0)) (or (not R_E1_V5) (= (ite MW_S1_V5 S1_V5_!1524 V5_0) V5_0)) (or (not R_E1_V4) (= (ite MW_S1_V4 S1_V4_!1525 V4_0) V4_0)))))
 (let (($x201 (not $x2515)))
 (let (($x3591 (and (or $x1682 (= S1_V1_!1516 S1_V1_!1521)) (or (not (or (not R_S1_V1) (= E1_!1515 E1_!1532))) (= S1_V1_!1516 S1_V1_!1533)) (or $x616 (= S1_V1_!1533 S1_V1_!1521)) (or $x1040 (= S2_V5_!1530 S2_V5_!1541)) (or $x1682 (= S1_V3_!1517 S1_V3_!1522)) (or (not (or (not R_S1_V1) (= E1_!1515 E1_!1532))) (= S1_V3_!1517 S1_V3_!1534)) (or $x616 (= S1_V3_!1534 S1_V3_!1522)) (or $x1682 (= S1_V2_!1518 S1_V2_!1523)) (or (not (or (not R_S1_V1) $x3575)) (= S1_V2_!1535 S1_V2_!1518)) (or $x616 (= S1_V2_!1535 S1_V2_!1523)) (or $x201 (= E1_!1526 E1_!1515)) (or $x201 $x4348) $x3575 (or (not $x2746) $x3052) (or $x1682 (= S1_V5_!1519 S1_V5_!1524)) (or (not (or (not R_S1_V1) $x3575)) (= S1_V5_!1536 S1_V5_!1519)) (or $x616 (= S1_V5_!1536 S1_V5_!1524)) (or $x1040 (= S2_V1_!1527 S2_V1_!1538)) (or (not $x1714) (= S1_V4_!1525 S1_V4_!1520)) (or (not $x5549) (= S1_V4_!1525 S1_V4_!1537)) (or (not (or (not R_S1_V1) $x3575)) (= S1_V4_!1537 S1_V4_!1520)) (or $x1040 (= S2_V2_!1529 S2_V2_!1540)) (or $x1040 $x530) (not MW_S1_V1) (not MW_S1_V2) (or (not MW_S1_V5) W_S1_V5) (or (not MW_S1_V4) W_S1_V4) (or (not MW_S2_V1) W_S2_V1) (or (not MW_S2_V3) W_S2_V3) (or (not MW_S2_V2) W_S2_V2) (or (not MW_S2_V5) W_S2_V5))))
 (or (not $x3591) (not $x4251) $x1670))))))))))))))))))))))))))))))))))))))))
 )
 )
 )
 )
 )
 )
 )
 )
 )
 )
 )
 )
 )
 )
 )
 )
 )
 )
 )
 )
 )
 )
 )
 )
 )
 )
 )
 )
 )
 )
 )
 )
 )
 )
 )
 )
 )
 )
 )
 )
 )
 ))
 (let (($x720 (not (or (and W_S2_V2 R_E1_V2) (and W_S2_V5 R_E1_V5) R_E1_V4))))
 (let (($x2836 (= DISJ_W_S2_R_E1 $x720)))
 (let (($x5938 (and W_S2_V5 R_S2_V5)))
 (let (($x498 (and W_S2_V2 R_S2_V2)))
 (let (($x5427 (and W_S2_V3 R_S2_V3)))
 (let (($x5961 (and W_S2_V1 R_S2_V1)))
 (let (($x3110 (= DISJ_W_S2_R_S2 (not (or $x5961 $x5427 $x498 $x5938 R_S2_V4)))))
 (let (($x5870 (and W_S2_V5 R_S1_V5)))
 (let (($x2102 (and W_S2_V2 R_S1_V2)))
 (let (($x2875 (and W_S2_V3 R_S1_V3)))
 (let (($x4414 (and W_S2_V1 R_S1_V1)))
 (let (($x909 (= DISJ_W_S2_R_S1 (not (or $x4414 $x2875 $x2102 $x5870 R_S1_V4)))))
 (let (($x2852 (= DISJ_W_S1_W_S2 (not (or W_S2_V3 (and W_S1_V5 W_S2_V5) W_S1_V4)))))
 (let (($x4838 (not R_E1_V3)))
 (let (($x5614 (not (or R_S2_V3 (and W_S1_V5 R_S2_V5) (and W_S1_V4 R_S2_V4)))))
 (let (($x4054 (= DISJ_W_S1_R_S2 $x5614)))
 (let (($x1493 (not (or R_S1_V3 (and W_S1_V5 R_S1_V5) (and W_S1_V4 R_S1_V4)))))
 (let (($x3930 (= DISJ_W_S1_R_S1 $x1493)))
 (let (($x2563 (not W_S1_V2)))
 (let (($x1438 (not W_S1_V1)))
 (let (($x2185 (not R_E1_V1)))
 (let (($x1443 (and DISJ_W_S1_R_E1 $x2185 $x1438 $x2563 W_S1_V3 W_S2_V4 $x3930 $x4054 $x4838 $x2852 $x909 $x3110 $x2836 $x591 $x4738 $x2653)))
 (and $x1443 $x3972))))))))))))))))))))))))))))
(check-sat)
